letting maxWeight=95
letting values=[43, 41, 8, 18, 38, 29, 43, 3, 7, 43, 21, 1, 40, 25, 8, 22, 6, 19, 40, 25, 5, 17, 34, 31, 30, 39, 33, 24, 19, 21, 21, 44, 31, 7, 6, 7, 13, 5, 44, 1, 17, 43, 9, 35, 4, 26, 13, 7, 32, 36, 37, 19, 18, 22, 8, 41]
letting weights=[19, 25, 9, 23, 8, 5, 17, 7, 9, 26, 13, 18, 14, 11, 22, 8, 5, 11, 6, 12, 26, 4, 2, 8, 27, 4, 8, 9, 18, 3, 3, 24, 1, 3, 25, 18, 8, 25, 18, 7, 7, 17, 17, 20, 5, 7, 14, 25, 20, 20, 17, 19, 26, 21, 4, 22]
